p cnf 174 768
81 88 106 133 0
70 76 85 119 0
56 59 93 100 126 0
73 107 112 0
57 79 0
84 113 114 117 0
61 98 120 129 0
53 67 91 94 0
39 51 111 0
43 44 49 165 0
29 32 36 103 0
31 144 0
30 66 72 0
48 78 109 0
34 83 0
46 50 0
35 38 0
40 101 170 0
27 33 105 131 0
132 134 135 0
86 172 0
74 80 137 0
58 138 0
63 122 0
97 140 0
52 92 0
89 142 0
87 136 145 0
60 65 71 77 0
127 147 149 0
108 150 0
118 151 152 0
64 124 0
69 96 130 155 156 0
47 54 157 158 0
41 159 160 0
-85 -106 0
-59 -106 0
-106 -161 0
-106 -107 0
-79 -106 0
-59 -85 0
-85 -161 0
-85 -107 0
-79 -85 0
-59 -161 0
-59 -107 0
-59 -79 0
-107 -161 0
-79 -161 0
-79 -107 0
-61 -84 0
-67 -84 0
-51 -84 0
-49 -84 0
-36 -84 0
-61 -67 0
-51 -61 0
-49 -61 0
-36 -61 0
-51 -67 0
-49 -67 0
-36 -67 0
-49 -51 0
-36 -51 0
-36 -49 0
-72 -162 0
-146 -162 0
-109 -162 0
-162 -163 0
-34 -162 0
-72 -146 0
-72 -109 0
-72 -163 0
-34 -72 0
-109 -146 0
-146 -163 0
-34 -146 0
-109 -163 0
-34 -109 0
-34 -163 0
-115 -140 0
-92 -115 0
-115 -164 0
-45 -115 0
-115 -166 0
-92 -140 0
-140 -164 0
-45 -140 0
-140 -166 0
-92 -164 0
-45 -92 0
-92 -166 0
-45 -164 0
-164 -166 0
-45 -166 0
-77 -89 0
-89 -127 0
-89 -150 0
-89 -167 0
-89 -168 0
-77 -127 0
-77 -150 0
-77 -167 0
-77 -168 0
-127 -150 0
-127 -167 0
-127 -168 0
-150 -167 0
-150 -168 0
-167 -168 0
-151 -155 0
-151 -157 0
-151 -169 0
-151 -159 0
-151 -171 0
-155 -157 0
-155 -169 0
-155 -159 0
-155 -171 0
-157 -169 0
-157 -159 0
-157 -171 0
-159 -169 0
-169 -171 0
-159 -171 0
-84 -106 0
-106 -162 0
-106 -115 0
-89 -106 0
-106 -151 0
-84 -162 0
-84 -115 0
-84 -89 0
-84 -151 0
-115 -162 0
-89 -162 0
-151 -162 0
-89 -115 0
-115 -151 0
-89 -151 0
-61 -85 0
-72 -85 0
-85 -140 0
-77 -85 0
-85 -155 0
-61 -72 0
-61 -140 0
-61 -77 0
-61 -155 0
-72 -140 0
-72 -77 0
-72 -155 0
-77 -140 0
-140 -155 0
-77 -155 0
-59 -67 0
-59 -146 0
-59 -92 0
-59 -127 0
-59 -157 0
-67 -146 0
-67 -92 0
-67 -127 0
-67 -157 0
-92 -146 0
-127 -146 0
-146 -157 0
-92 -127 0
-92 -157 0
-127 -157 0
-51 -161 0
-109 -161 0
-161 -164 0
-150 -161 0
-161 -169 0
-51 -109 0
-51 -164 0
-51 -150 0
-51 -169 0
-109 -164 0
-109 -150 0
-109 -169 0
-150 -164 0
-164 -169 0
-150 -169 0
-49 -107 0
-107 -163 0
-45 -107 0
-107 -167 0
-107 -159 0
-49 -163 0
-45 -49 0
-49 -167 0
-49 -159 0
-45 -163 0
-163 -167 0
-159 -163 0
-45 -167 0
-45 -159 0
-159 -167 0
-36 -79 0
-34 -79 0
-79 -166 0
-79 -168 0
-79 -171 0
-34 -36 0
-36 -166 0
-36 -168 0
-36 -171 0
-34 -166 0
-34 -168 0
-34 -171 0
-166 -168 0
-166 -171 0
-168 -171 0
-70 -173 0
-56 -173 0
-56 -70 0
-120 -153 0
-94 -153 0
-94 -120 0
-71 -136 0
-136 -147 0
-71 -147 0
-153 -173 0
-136 -173 0
-136 -153 0
-70 -120 0
-70 -71 0
-71 -120 0
-56 -94 0
-56 -147 0
-94 -147 0
-133 -143 0
-100 -133 0
-112 -133 0
-100 -143 0
-112 -143 0
-100 -112 0
-114 -174 0
-91 -114 0
-44 -114 0
-91 -174 0
-44 -174 0
-44 -91 0
-31 -90 0
-90 -128 0
-25 -90 0
-31 -128 0
-25 -31 0
-25 -128 0
-132 -172 0
-55 -132 0
-132 -137 0
-55 -172 0
-137 -172 0
-55 -137 0
-114 -133 0
-90 -133 0
-132 -133 0
-90 -114 0
-114 -132 0
-90 -132 0
-143 -174 0
-31 -143 0
-143 -172 0
-31 -174 0
-172 -174 0
-31 -172 0
-91 -100 0
-100 -128 0
-55 -100 0
-91 -128 0
-55 -91 0
-55 -128 0
-44 -112 0
-25 -112 0
-112 -137 0
-25 -44 0
-44 -137 0
-25 -137 0
-76 -88 0
-88 -126 0
-24 -88 0
-76 -126 0
-24 -76 0
-24 -126 0
-23 -66 0
-23 -148 0
-23 -48 0
-66 -148 0
-48 -66 0
-48 -148 0
-22 -134 0
-99 -134 0
-21 -134 0
-22 -99 0
-21 -22 0
-21 -99 0
-118 -130 0
-54 -118 0
-20 -118 0
-54 -130 0
-20 -130 0
-20 -54 0
-23 -88 0
-88 -134 0
-88 -118 0
-23 -134 0
-23 -118 0
-118 -134 0
-66 -76 0
-22 -76 0
-76 -130 0
-22 -66 0
-66 -130 0
-22 -130 0
-126 -148 0
-99 -126 0
-54 -126 0
-99 -148 0
-54 -148 0
-54 -99 0
-24 -48 0
-21 -24 0
-20 -24 0
-21 -48 0
-20 -48 0
-20 -21 0
-50 -68 0
-68 -101 0
-27 -68 0
-50 -101 0
-27 -50 0
-27 -101 0
-75 -125 0
-74 -75 0
-58 -75 0
-74 -125 0
-58 -125 0
-58 -74 0
-65 -149 0
-19 -65 0
-18 -65 0
-19 -149 0
-18 -149 0
-18 -19 0
-47 -156 0
-41 -156 0
-17 -156 0
-41 -47 0
-17 -47 0
-17 -41 0
-68 -75 0
-65 -68 0
-68 -156 0
-65 -75 0
-75 -156 0
-65 -156 0
-50 -125 0
-50 -149 0
-47 -50 0
-125 -149 0
-47 -125 0
-47 -149 0
-74 -101 0
-19 -101 0
-41 -101 0
-19 -74 0
-41 -74 0
-19 -41 0
-27 -58 0
-18 -27 0
-17 -27 0
-18 -58 0
-17 -58 0
-17 -18 0
-62 -98 0
-62 -111 0
-29 -62 0
-98 -111 0
-29 -98 0
-29 -111 0
-95 -123 0
-38 -123 0
-105 -123 0
-38 -95 0
-95 -105 0
-38 -105 0
-60 -87 0
-87 -108 0
-16 -87 0
-60 -108 0
-16 -60 0
-16 -108 0
-64 -69 0
-15 -64 0
-26 -64 0
-15 -69 0
-26 -69 0
-15 -26 0
-62 -123 0
-62 -87 0
-62 -64 0
-87 -123 0
-64 -123 0
-64 -87 0
-95 -98 0
-60 -98 0
-69 -98 0
-60 -95 0
-69 -95 0
-60 -69 0
-38 -111 0
-108 -111 0
-15 -111 0
-38 -108 0
-15 -38 0
-15 -108 0
-29 -105 0
-16 -29 0
-26 -29 0
-16 -105 0
-26 -105 0
-16 -26 0
-14 -81 0
-81 -119 0
-81 -93 0
-13 -81 0
-73 -81 0
-57 -81 0
-14 -119 0
-14 -93 0
-13 -14 0
-14 -73 0
-14 -57 0
-93 -119 0
-13 -119 0
-73 -119 0
-57 -119 0
-13 -93 0
-73 -93 0
-57 -93 0
-13 -73 0
-13 -57 0
-57 -73 0
-117 -121 0
-117 -129 0
-53 -117 0
-39 -117 0
-43 -117 0
-103 -117 0
-121 -129 0
-53 -121 0
-39 -121 0
-43 -121 0
-103 -121 0
-53 -129 0
-39 -129 0
-43 -129 0
-103 -129 0
-39 -53 0
-43 -53 0
-53 -103 0
-39 -43 0
-39 -103 0
-43 -103 0
-141 -144 0
-30 -141 0
-12 -141 0
-78 -141 0
-11 -141 0
-83 -141 0
-30 -144 0
-12 -144 0
-78 -144 0
-11 -144 0
-83 -144 0
-12 -30 0
-30 -78 0
-11 -30 0
-30 -83 0
-12 -78 0
-11 -12 0
-12 -83 0
-11 -78 0
-78 -83 0
-11 -83 0
-8 -9 0
-7 -9 0
-9 -46 0
-9 -35 0
-9 -40 0
-9 -33 0
-7 -8 0
-8 -46 0
-8 -35 0
-8 -40 0
-8 -33 0
-7 -46 0
-7 -35 0
-7 -40 0
-7 -33 0
-35 -46 0
-40 -46 0
-33 -46 0
-35 -40 0
-33 -35 0
-33 -40 0
-86 -135 0
-6 -135 0
-5 -135 0
-4 -135 0
-80 -135 0
-135 -138 0
-6 -86 0
-5 -86 0
-4 -86 0
-80 -86 0
-86 -138 0
-5 -6 0
-4 -6 0
-6 -80 0
-6 -138 0
-4 -5 0
-5 -80 0
-5 -138 0
-4 -80 0
-4 -138 0
-80 -138 0
-3 -63 0
-3 -97 0
-3 -52 0
-3 -110 0
-2 -3 0
-3 -28 0
-63 -97 0
-52 -63 0
-63 -110 0
-2 -63 0
-28 -63 0
-52 -97 0
-97 -110 0
-2 -97 0
-28 -97 0
-52 -110 0
-2 -52 0
-28 -52 0
-2 -110 0
-28 -110 0
-2 -28 0
-124 -152 0
-96 -152 0
-152 -158 0
-37 -152 0
-152 -160 0
-104 -152 0
-96 -124 0
-124 -158 0
-37 -124 0
-124 -160 0
-104 -124 0
-96 -158 0
-37 -96 0
-96 -160 0
-96 -104 0
-37 -158 0
-158 -160 0
-104 -158 0
-37 -160 0
-37 -104 0
-104 -160 0
-81 -117 0
-81 -141 0
-9 -81 0
-81 -135 0
-3 -81 0
-81 -152 0
-117 -141 0
-9 -117 0
-117 -135 0
-3 -117 0
-117 -152 0
-9 -141 0
-135 -141 0
-3 -141 0
-141 -152 0
-9 -135 0
-3 -9 0
-9 -152 0
-3 -135 0
-135 -152 0
-3 -152 0
-14 -121 0
-14 -144 0
-8 -14 0
-14 -86 0
-14 -63 0
-14 -124 0
-121 -144 0
-8 -121 0
-86 -121 0
-63 -121 0
-121 -124 0
-8 -144 0
-86 -144 0
-63 -144 0
-124 -144 0
-8 -86 0
-8 -63 0
-8 -124 0
-63 -86 0
-86 -124 0
-63 -124 0
-119 -129 0
-30 -119 0
-7 -119 0
-6 -119 0
-97 -119 0
-96 -119 0
-30 -129 0
-7 -129 0
-6 -129 0
-97 -129 0
-96 -129 0
-7 -30 0
-6 -30 0
-30 -97 0
-30 -96 0
-6 -7 0
-7 -97 0
-7 -96 0
-6 -97 0
-6 -96 0
-96 -97 0
-53 -93 0
-12 -93 0
-46 -93 0
-5 -93 0
-52 -93 0
-93 -158 0
-12 -53 0
-46 -53 0
-5 -53 0
-52 -53 0
-53 -158 0
-12 -46 0
-5 -12 0
-12 -52 0
-12 -158 0
-5 -46 0
-46 -52 0
-46 -158 0
-5 -52 0
-5 -158 0
-52 -158 0
-13 -39 0
-13 -78 0
-13 -35 0
-4 -13 0
-13 -110 0
-13 -37 0
-39 -78 0
-35 -39 0
-4 -39 0
-39 -110 0
-37 -39 0
-35 -78 0
-4 -78 0
-78 -110 0
-37 -78 0
-4 -35 0
-35 -110 0
-35 -37 0
-4 -110 0
-4 -37 0
-37 -110 0
-43 -73 0
-11 -73 0
-40 -73 0
-73 -80 0
-2 -73 0
-73 -160 0
-11 -43 0
-40 -43 0
-43 -80 0
-2 -43 0
-43 -160 0
-11 -40 0
-11 -80 0
-2 -11 0
-11 -160 0
-40 -80 0
-2 -40 0
-40 -160 0
-2 -80 0
-80 -160 0
-2 -160 0
-57 -103 0
-57 -83 0
-33 -57 0
-57 -138 0
-28 -57 0
-57 -104 0
-83 -103 0
-33 -103 0
-103 -138 0
-28 -103 0
-103 -104 0
-33 -83 0
-83 -138 0
-28 -83 0
-83 -104 0
-33 -138 0
-28 -33 0
-33 -104 0
-28 -138 0
-104 -138 0
-28 -104 0
-113 -139 0
-113 -165 0
-32 -113 0
-139 -165 0
-32 -139 0
-32 -165 0
-1 -154 0
-1 -170 0
-1 -131 0
-154 -170 0
-131 -154 0
-131 -170 0
-116 -122 0
-42 -116 0
-102 -116 0
-42 -122 0
-102 -122 0
-42 -102 0
-142 -145 0
-10 -142 0
-82 -142 0
-10 -145 0
-82 -145 0
-10 -82 0
-1 -113 0
-113 -116 0
-113 -142 0
-1 -116 0
-1 -142 0
-116 -142 0
-139 -154 0
-122 -139 0
-139 -145 0
-122 -154 0
-145 -154 0
-122 -145 0
-165 -170 0
-42 -165 0
-10 -165 0
-42 -170 0
-10 -170 0
-10 -42 0
-32 -131 0
-32 -102 0
-32 -82 0
-102 -131 0
-82 -131 0
-82 -102 0
